(set-logic QF_LIA)
(set-info :ran/ran_2_1.smt2)
(set-info :smt-lib-version 2.0)
(declare-fun x0 () Int)
(declare-fun x1 () Real)
(define-fun ie0 () Bool (<= (+ (* 36 x1) (* 95 x1) (* (- 89) x1) (* (- 6) x1) (* (- 91) x0) ) (- 88)))
(define-fun ie1 () Bool (<= (+ (* (- 37) x1) (* (- 45) x1) (* (- 17) x1) (* (- 91) x0) (* 97 x0) (* (- 58) x0) (* (- 8) x0) (* (- 81) x0) ) 20))
(define-fun ie2 () Bool (<= (+ (* 29 x0) (* (- 14) x0) (* 47 x1) (* (- 71) x0) (* (- 70) x0) (* 2 x0) (* 59 x1) (* (- 20) x0) ) (- 80)))
(define-fun ie3 () Bool (<= (+ (* (- 34) x0) (* (- 5) x1) (* 58 x1) (* 5 x0) (* (- 22) x1) (* 62 x0) ) (- 74)))
(assert ie0)
(assert ie1)
(assert ie2)
(assert ie3)
(check-sat)
(exit)
